15 965
520 7 441 7 296 7 151 12
525 7 477 7 391 7 243 9 78 11 920 15
535 8 494 8 320 11
535 8 492 8 398 9 231 10 69 14 899 50
525 7 479 7 355 7 106 9 927 13
525 7 482 7 365 7 115 9 943 13
525 7 482 7 365 7 115 9 943 13
525 7 482 7 394 7 212 9 29 11 822 15 623 21
525 7 482 7 394 7 212 9 29 11 822 15 623 21
525 7 502 7 412 7 255 9 80 11 874 18
525 7 502 7 412 7 255 9 80 11 874 18
528 7 482 7 366 7 179 12
528 7 482 7 366 7 179 12
520 7 444 7 352 7 190 9 19 11 841 15 712 23
520 7 444 7 352 7 190 9 19 11 841 15 712 23
